p cnf 10 50
-1 7 -6 0
4 -7 2 0
3 -4 -2 0
3 4 5 0
7 -5 -9 0
-6 7 -2 0
1 -4 -9 0
-4 -3 1 0
5 6 -10 0
-8 -9 -2 0
-10 8 -1 0
7 -6 -5 0
-4 -9 -2 0
6 7 -2 0
10 7 -4 0
5 6 8 0
3 -2 1 0
-2 9 -1 0
9 1 7 0
-8 5 -3 0
-7 -8 6 0
6 2 -10 0
7 -1 10 0
-1 4 -8 0
2 9 -5 0
8 6 9 0
-7 5 6 0
-10 9 7 0
-9 -1 -3 0
5 -6 -8 0
3 -1 2 0
7 10 8 0
1 -4 6 0
10 -7 2 0
-4 -10 8 0
-7 -10 -8 0
3 1 7 0
7 10 -2 0
-6 1 -8 0
-3 6 5 0
-9 -10 -5 0
-8 -2 6 0
8 -2 10 0
-4 -3 10 0
2 5 -3 0
-7 -1 9 0
3 9 4 0
3 -1 2 0
-8 -5 -2 0
-5 8 -7 0
